; benchmark generated from python API
(set-info :status unknown)
(declare-fun syscall_stub_newfstatat_75_64 () (_ BitVec 64))
(declare-fun mem_7fffffffffef6c8_76_32 () (_ BitVec 32))
(declare-fun mem_7fffffffffef6d8_77_64 () (_ BitVec 64))
(declare-fun syscall_stub_ioctl_79_32 () (_ BitVec 32))
(declare-fun mem_7fffffffffef6e8_78_64 () (_ BitVec 64))
(assert
 (let ((?x53 ((_ extract 31 0) syscall_stub_newfstatat_75_64)))
 (bvule ?x53 (_ bv4294963200 32))))
(assert
 (let ((?x111 ((_ extract 15 12) mem_7fffffffffef6c8_76_32)))
 (= (_ bv2 4) ?x111)))
(assert
 (let ((?x170 ((_ extract 19 8) mem_7fffffffffef6d8_77_64)))
 (let ((?x164 ((_ extract 63 44) mem_7fffffffffef6d8_77_64)))
 (let ((?x205 (concat ?x164 ?x170)))
 (let ((?x209 (bvadd (_ bv4294967160 32) ?x205)))
 (let ((?x217 ((_ extract 31 3) ?x209)))
 (let (($x9136 (= (_ bv0 29) ?x217)))
 (not $x9136))))))))
(assert
 (let (($x336 (= (_ bv0 32) syscall_stub_ioctl_79_32)))
 (not $x336)))
(assert
 (let ((?x800 ((_ extract 63 13) mem_7fffffffffef6e8_78_64)))
 (= (_ bv0 51) ?x800)))
(assert
 (let ((?x233 (bvadd (_ bv18446744073709551615 64) mem_7fffffffffef6e8_78_64)))
 (let ((?x240 ((_ extract 63 13) ?x233)))
 (= (_ bv0 51) ?x240))))
(assert
 (let ((?x533 ((_ extract 63 7) mem_7fffffffffef6e8_78_64)))
 (let (($x135794 (= (_ bv0 57) ?x533)))
 (not $x135794))))
(assert
 (let ((?x1427 (concat (_ bv0 64) mem_7fffffffffef6e8_78_64)))
 (let ((?x1258 (bvurem (_ bv73 128) ?x1427)))
 (let ((?x1021 ((_ extract 63 0) ?x1258)))
 (= (_ bv73 64) ?x1021)))))
(assert
 (let ((?x50818 ((_ extract 31 0) mem_7fffffffffef6e8_78_64)))
 (let ((?x50817 (bvadd (_ bv3221229376 32) ?x50818)))
 (let (($x50812 (bvule ?x50817 (_ bv3221229376 32))))
 (let (($x50855 (not $x50812)))
 (let ((?x659 (bvadd (_ bv3221229376 64) mem_7fffffffffef6e8_78_64)))
 (let ((?x50825 ((_ extract 63 32) ?x659)))
 (let (($x51118 (= (_ bv0 32) ?x50825)))
 (let (($x51119 (not $x51118)))
 (or $x51119 $x50855))))))))))
(assert
 (let ((?x1427 (concat (_ bv0 64) mem_7fffffffffef6e8_78_64)))
 (let ((?x1258 (bvurem (_ bv73 128) ?x1427)))
 (let ((?x1021 ((_ extract 63 0) ?x1258)))
 (let ((?x1235 (bvmul (_ bv18446744073709551615 64) ?x1021)))
 (let ((?x192 (bvadd (_ bv4302568 64) ?x1235)))
 (= (_ bv4302495 64) ?x192)))))))
(assert
 (let ((?x4982 ((_ extract 6 0) mem_7fffffffffef6e8_78_64)))
 (let (($x4965 (bvule ?x4982 (_ bv73 7))))
 (let ((?x533 ((_ extract 63 7) mem_7fffffffffef6e8_78_64)))
 (let (($x135794 (= (_ bv0 57) ?x533)))
 (let (($x135848 (and $x135794 $x4965)))
 (let ((?x136757 (ite $x135848 mem_7fffffffffef6e8_78_64 (_ bv73 64))))
 (bvugt ?x136757 (_ bv32 64)))))))))
(assert
 (let ((?x4982 ((_ extract 6 0) mem_7fffffffffef6e8_78_64)))
(let (($x4965 (bvule ?x4982 (_ bv73 7))))
(let ((?x533 ((_ extract 63 7) mem_7fffffffffef6e8_78_64)))
(let (($x135794 (= (_ bv0 57) ?x533)))
(let (($x135848 (and $x135794 $x4965)))
(let ((?x136757 (ite $x135848 mem_7fffffffffef6e8_78_64 (_ bv73 64))))
(bvule ?x136757 (_ bv128 64)))))))))
(maximize mem_7fffffffffef6c8_76_32)
(maximize mem_7fffffffffef6d8_77_64)
(minimize syscall_stub_ioctl_79_32)
(maximize syscall_stub_newfstatat_75_64)
(minimize mem_7fffffffffef6c8_76_32)
(minimize mem_7fffffffffef6e8_78_64)
(maximize mem_7fffffffffef6e8_78_64)
(minimize syscall_stub_newfstatat_75_64)
(minimize mem_7fffffffffef6d8_77_64)
(maximize syscall_stub_ioctl_79_32)
(check-sat)
(get-objectives)
